141
0 72 81 61 20 83 139 88 90 96 
64 35 62 112 126 82 86 75 15 14 
131 105 92 104 117 68 119 52 77 32 
137 129 108 99 50 27 114 46 49 79 
94 10 93 53 11 121 3 109 26 123 
85 87 100 63 74 42 48 70 31 47 
23 58 12 116 118 140 8 43 24 125 
56 51 19 7 138 25 22 102 21 133 
30 122 103 106 39 5 1 95 115 17 
57 44 124 78 37 134 135 89 130 13 
120 38 80 45 41 76 54 55 127 101 
34 71 69 113 65 18 36 84 9 91 
2 97 59 128 40 73 132 111 66 136 
67 4 16 6 107 33 29 60 110 98 
28 
